48
Properties=species:S:1:pos:R:3:atom_id:S:1:map_num:I:1:radical_electrons:I:1 origin=agent-proposed/reconstructed optimization="unoptimized (RDKit ETKDGv3 distance geometry only; no force field; no QM)" stability_claim=none evidence_class=AGENT generator=donor_graph.py generator_sha256=6c088a006e5cd401f0407cfcaedd956381d9aae9181fdcdba28e5364009b3bfd rdkit_version=2026.03.6 ase_version=3.29.0 etkdg_seed=20260916 units=Angstrom source_name_locator="Barrera et al. arXiv:2512.24431 SI p15" species_state="activated, deiodinated, explicit terminal C radical" proposed_charge=0 proposed_multiplicity=2 pbc="F F F" public_adaptation="header only: internal task identifier and private cache file names removed; coordinates and per-atom arrays unchanged" original_sha256=6ed11860b16290b698115c7a1638c494a5b72b2d296598c193671c4212e09a04
Ge      -0.17992700      -0.21312947      -2.35854050 D-Ge1        1        0
C       -0.34630546      -0.48275116      -4.16787459 D-Ca       11        0
C       -0.46273194      -0.63973672      -5.33666535 D-Cb       12        1
C       -1.42380344       1.08602960      -1.61730528 D-C2        2        0
C       -1.07795221       1.09444379      -0.11618292 D-C3        3        0
C       -1.98123896       2.14353006       0.45570569 D-L1a       14        0
C       -1.87123239       2.38398900       1.91759667 D-L1b       15        0
O       -2.80924420       3.41039894       2.20506303 D-O1       16        0
C        0.33463707       1.53218069       0.10509986 D-C4        4        0
C        1.38050507       0.51827027      -0.25970735 D-C5        5        0
C        2.69115922       1.00608519       0.29883144 D-L2a       17        0
C        3.85637793       0.11369088       0.02983568 D-L2b       18        0
O        5.00887449       0.69406771       0.60927759 D-O2       19        0
C        1.56907744       0.41355894      -1.78163641 D-C9        9        0
C        1.11365708      -0.83938778       0.26855515 D-C6        6        0
C       -0.33230787      -1.30796596       0.13934192 D-C7        7        0
C       -0.44523561      -2.45171055       1.09029919 D-L3a       20        0
C       -1.76090681      -3.12202715       1.19033042 D-L3b       21        0
O       -2.20670217      -3.68054037       0.02707894 D-O3       22        0
C       -1.32182381      -0.23205127       0.51096094 D-C10       10        0
C       -0.53538778      -1.82070777      -1.27241934 D-C8        8        0
H       -1.23800683       2.11296651      -1.98123648 D-C2-H1        0        0
H       -2.46895175       0.74766873      -1.70440977 D-C2-H2        0        0
H       -3.05135264       1.98222940       0.17591311 D-L1a-H1        0        0
H       -1.71748972       3.12362298      -0.04093634 D-L1a-H2        0        0
H       -0.90438906       2.81967536       2.21667923 D-L1b-H1        0        0
H       -2.15273852       1.45889949       2.46097271 D-L1b-H2        0        0
H       -2.61027918       4.11885646       1.51409535 D-O1-H1        0        0
H        0.44923233       1.68327960       1.20581317 D-C4-H1        0        0
H        0.57701777       2.49335524      -0.37254837 D-C4-H2        0        0
H        2.59410221       1.10278127       1.39958654 D-L2a-H1        0        0
H        2.91723637       2.03026847      -0.06233272 D-L2a-H2        0        0
H        4.11275345      -0.02706508      -1.02662529 D-L2b-H1        0        0
H        3.73597606      -0.88450110       0.48344740 D-L2b-H2        0        0
H        5.38727897       0.13123769       1.30971538 D-O2-H1        0        0
H        2.33450699      -0.35018606      -1.96653159 D-C9-H1        0        0
H        1.84155165       1.39510102      -2.17827388 D-C9-H2        0        0
H        1.70951538      -1.59878864      -0.26037341 D-C6-H1        0        0
H        1.36796459      -0.86874724       1.35095861 D-C6-H2        0        0
H        0.33895123      -3.21880149       0.81319463 D-L3a-H1        0        0
H       -0.11359983      -2.13379668       2.12401589 D-L3a-H2        0        0
H       -2.51220962      -2.46603297       1.67499342 D-L3b-H1        0        0
H       -1.62324363      -3.97247217       1.92140402 D-L3b-H2        0        0
H       -3.18190383      -3.83605303       0.02616050 D-O3-H1        0        0
H       -1.24387524      -0.11695642       1.61056163 D-C10-H1        0        0
H       -2.32068045      -0.64450085       0.31812573 D-C10-H2        0        0
H        0.17230485      -2.62208920      -1.47459555 D-C8-H1        0        0
H       -1.59916022      -2.06618820      -1.47541870 D-C8-H2        0        0
