409
Properties=species:S:1:pos:R:3:atom_id:S:1:role:S:1 model_role="C7 validation configuration V1" origin=agent-proposed/geometric-construction evidence_class=AGENT optimization="geometric construction only; no relaxation, optimization, energy, force or gradient evaluation" not_computed="bond order, bond formation or cleavage, electronic state, spin state and stability were not computed; no energy, force or gradient was evaluated; no geometry is relaxed; not compared with the benchmark authors' coordinates [GAP]; not a model of the benchmark geometry; topology words name the construction recipe and constructed distances only" stability_claim=none units=Angstrom benchmark_relation="not a model of the benchmark geometry; not compared with the benchmark authors coordinates, which have not been obtained [GAP]" charge_multiplicity="not assigned here; no electronic-state claim; assignment deferred to B2" generator=tools/build_ms001_geometries.py generator_sha256=bb1b2a99b352bc773c3e858d4aac3cd0596597b5cf87dedbc1182f933ee9ab13 ase_version=3.29.0 numpy_version=2.5.3 model="H:Si(100)-2x1 finite cluster, H-terminated except two Si sites left three-coordinate and unterminated by construction" three_coordinate_site_ids=S-L1-07-05,S-L1-09-05 site_name_note="\"inter-row dangling-bond pair\" is only a nominal name for these two sites; no electronic-state, unpaired-electron or radical claim" m2_source=structures/donor-activated-EAOGe-C2-radical.extxyz m2_source_sha256=bb7ab3443a99fcdfe47df6a928a07cc45cdd531299051727a5b160493c9186e3 m2_reuse="read by digest, not regenerated" c7_role="V1, nominal name \"separated bodies\"" filename_note="intact/broken in the V2 and V3 file names are C7 recipe labels and denote the geometry recipe only" construction_rule="identical coordinates to the start of the approach branch" tool_orientation="D-Ge1->D-Cb along -z; projection of D-Ge1->D-O1 on xy along +x" start_Cb_lateral="midpoint of the two three-coordinate Si sites" start_Cb_height_A=6.0 pbc="F F F"
Si      16.10252471      15.35835929       5.20785196 S-L1-01-01 M1-Si-dimer
Si      18.45378368      15.35835929       5.20785196 S-L1-03-01 M1-Si-dimer
Si      23.78170436      15.35835929       5.20785196 S-L1-05-01 M1-Si-dimer
Si      26.13296333      15.35835929       5.20785196 S-L1-07-01 M1-Si-dimer
Si      31.46088400      15.35835929       5.20785196 S-L1-09-01 M1-Si-dimer
Si      33.81214297      15.35835929       5.20785196 S-L1-11-01 M1-Si-dimer
Si      39.14006364      15.35835929       5.20785196 S-L1-13-01 M1-Si-dimer
Si      41.49132261      15.35835929       5.20785196 S-L1-15-01 M1-Si-dimer
Si      16.10252471      19.19794911       5.20785196 S-L1-01-03 M1-Si-dimer
Si      18.45378368      19.19794911       5.20785196 S-L1-03-03 M1-Si-dimer
Si      23.78170436      19.19794911       5.20785196 S-L1-05-03 M1-Si-dimer
Si      26.13296333      19.19794911       5.20785196 S-L1-07-03 M1-Si-dimer
Si      31.46088400      19.19794911       5.20785196 S-L1-09-03 M1-Si-dimer
Si      33.81214297      19.19794911       5.20785196 S-L1-11-03 M1-Si-dimer
Si      39.14006364      19.19794911       5.20785196 S-L1-13-03 M1-Si-dimer
Si      41.49132261      19.19794911       5.20785196 S-L1-15-03 M1-Si-dimer
Si      16.10252471      23.03753893       5.20785196 S-L1-01-05 M1-Si-dimer
Si      18.45378368      23.03753893       5.20785196 S-L1-03-05 M1-Si-dimer
Si      23.78170436      23.03753893       5.20785196 S-L1-05-05 M1-Si-dimer
Si      26.13296333      23.03753893       5.20785196 S-L1-07-05 M1-Si-3c-site
Si      31.46088400      23.03753893       5.20785196 S-L1-09-05 M1-Si-3c-site
Si      33.81214297      23.03753893       5.20785196 S-L1-11-05 M1-Si-dimer
Si      39.14006364      23.03753893       5.20785196 S-L1-13-05 M1-Si-dimer
Si      41.49132261      23.03753893       5.20785196 S-L1-15-05 M1-Si-dimer
Si      16.10252471      26.87712875       5.20785196 S-L1-01-07 M1-Si-dimer
Si      18.45378368      26.87712875       5.20785196 S-L1-03-07 M1-Si-dimer
Si      23.78170436      26.87712875       5.20785196 S-L1-05-07 M1-Si-dimer
Si      26.13296333      26.87712875       5.20785196 S-L1-07-07 M1-Si-dimer
Si      31.46088400      26.87712875       5.20785196 S-L1-09-07 M1-Si-dimer
Si      33.81214297      26.87712875       5.20785196 S-L1-11-07 M1-Si-dimer
Si      39.14006364      26.87712875       5.20785196 S-L1-13-07 M1-Si-dimer
Si      41.49132261      26.87712875       5.20785196 S-L1-15-07 M1-Si-dimer
Si      16.10252471      30.71671857       5.20785196 S-L1-01-09 M1-Si-dimer
Si      18.45378368      30.71671857       5.20785196 S-L1-03-09 M1-Si-dimer
Si      23.78170436      30.71671857       5.20785196 S-L1-05-09 M1-Si-dimer
Si      26.13296333      30.71671857       5.20785196 S-L1-07-09 M1-Si-dimer
Si      31.46088400      30.71671857       5.20785196 S-L1-09-09 M1-Si-dimer
Si      33.81214297      30.71671857       5.20785196 S-L1-11-09 M1-Si-dimer
Si      39.14006364      30.71671857       5.20785196 S-L1-13-09 M1-Si-dimer
Si      41.49132261      30.71671857       5.20785196 S-L1-15-09 M1-Si-dimer
Si      15.35835929      13.43856438       4.07250000 S-L2-01-00 M1-Si-sub
Si      19.19794911      13.43856438       4.07250000 S-L2-03-00 M1-Si-sub
Si      23.03753893      13.43856438       4.07250000 S-L2-05-00 M1-Si-sub
Si      26.87712875      13.43856438       4.07250000 S-L2-07-00 M1-Si-sub
Si      30.71671857      13.43856438       4.07250000 S-L2-09-00 M1-Si-sub
Si      34.55630840      13.43856438       4.07250000 S-L2-11-00 M1-Si-sub
Si      38.39589822      13.43856438       4.07250000 S-L2-13-00 M1-Si-sub
Si      42.23548804      13.43856438       4.07250000 S-L2-15-00 M1-Si-sub
Si      15.35835929      17.27815420       4.07250000 S-L2-01-02 M1-Si-sub
Si      19.19794911      17.27815420       4.07250000 S-L2-03-02 M1-Si-sub
Si      23.03753893      17.27815420       4.07250000 S-L2-05-02 M1-Si-sub
Si      26.87712875      17.27815420       4.07250000 S-L2-07-02 M1-Si-sub
Si      30.71671857      17.27815420       4.07250000 S-L2-09-02 M1-Si-sub
Si      34.55630840      17.27815420       4.07250000 S-L2-11-02 M1-Si-sub
Si      38.39589822      17.27815420       4.07250000 S-L2-13-02 M1-Si-sub
Si      42.23548804      17.27815420       4.07250000 S-L2-15-02 M1-Si-sub
Si      15.35835929      21.11774402       4.07250000 S-L2-01-04 M1-Si-sub
Si      19.19794911      21.11774402       4.07250000 S-L2-03-04 M1-Si-sub
Si      23.03753893      21.11774402       4.07250000 S-L2-05-04 M1-Si-sub
Si      26.87712875      21.11774402       4.07250000 S-L2-07-04 M1-Si-sub
Si      30.71671857      21.11774402       4.07250000 S-L2-09-04 M1-Si-sub
Si      34.55630840      21.11774402       4.07250000 S-L2-11-04 M1-Si-sub
Si      38.39589822      21.11774402       4.07250000 S-L2-13-04 M1-Si-sub
Si      42.23548804      21.11774402       4.07250000 S-L2-15-04 M1-Si-sub
Si      15.35835929      24.95733384       4.07250000 S-L2-01-06 M1-Si-sub
Si      19.19794911      24.95733384       4.07250000 S-L2-03-06 M1-Si-sub
Si      23.03753893      24.95733384       4.07250000 S-L2-05-06 M1-Si-sub
Si      26.87712875      24.95733384       4.07250000 S-L2-07-06 M1-Si-sub
Si      30.71671857      24.95733384       4.07250000 S-L2-09-06 M1-Si-sub
Si      34.55630840      24.95733384       4.07250000 S-L2-11-06 M1-Si-sub
Si      38.39589822      24.95733384       4.07250000 S-L2-13-06 M1-Si-sub
Si      42.23548804      24.95733384       4.07250000 S-L2-15-06 M1-Si-sub
Si      15.35835929      28.79692366       4.07250000 S-L2-01-08 M1-Si-sub
Si      19.19794911      28.79692366       4.07250000 S-L2-03-08 M1-Si-sub
Si      23.03753893      28.79692366       4.07250000 S-L2-05-08 M1-Si-sub
Si      26.87712875      28.79692366       4.07250000 S-L2-07-08 M1-Si-sub
Si      30.71671857      28.79692366       4.07250000 S-L2-09-08 M1-Si-sub
Si      34.55630840      28.79692366       4.07250000 S-L2-11-08 M1-Si-sub
Si      38.39589822      28.79692366       4.07250000 S-L2-13-08 M1-Si-sub
Si      42.23548804      28.79692366       4.07250000 S-L2-15-08 M1-Si-sub
Si      15.35835929      32.63651349       4.07250000 S-L2-01-10 M1-Si-sub
Si      19.19794911      32.63651349       4.07250000 S-L2-03-10 M1-Si-sub
Si      23.03753893      32.63651349       4.07250000 S-L2-05-10 M1-Si-sub
Si      26.87712875      32.63651349       4.07250000 S-L2-07-10 M1-Si-sub
Si      30.71671857      32.63651349       4.07250000 S-L2-09-10 M1-Si-sub
Si      34.55630840      32.63651349       4.07250000 S-L2-11-10 M1-Si-sub
Si      38.39589822      32.63651349       4.07250000 S-L2-13-10 M1-Si-sub
Si      42.23548804      32.63651349       4.07250000 S-L2-15-10 M1-Si-sub
Si      13.43856438      13.43856438       2.71500000 S-L3-00-00 M1-Si-sub
Si      17.27815420      13.43856438       2.71500000 S-L3-02-00 M1-Si-sub
Si      21.11774402      13.43856438       2.71500000 S-L3-04-00 M1-Si-sub
Si      24.95733384      13.43856438       2.71500000 S-L3-06-00 M1-Si-sub
Si      28.79692366      13.43856438       2.71500000 S-L3-08-00 M1-Si-sub
Si      32.63651349      13.43856438       2.71500000 S-L3-10-00 M1-Si-sub
Si      36.47610331      13.43856438       2.71500000 S-L3-12-00 M1-Si-sub
Si      40.31569313      13.43856438       2.71500000 S-L3-14-00 M1-Si-sub
Si      44.15528295      13.43856438       2.71500000 S-L3-16-00 M1-Si-sub
Si      13.43856438      17.27815420       2.71500000 S-L3-00-02 M1-Si-sub
Si      17.27815420      17.27815420       2.71500000 S-L3-02-02 M1-Si-sub
Si      21.11774402      17.27815420       2.71500000 S-L3-04-02 M1-Si-sub
Si      24.95733384      17.27815420       2.71500000 S-L3-06-02 M1-Si-sub
Si      28.79692366      17.27815420       2.71500000 S-L3-08-02 M1-Si-sub
Si      32.63651349      17.27815420       2.71500000 S-L3-10-02 M1-Si-sub
Si      36.47610331      17.27815420       2.71500000 S-L3-12-02 M1-Si-sub
Si      40.31569313      17.27815420       2.71500000 S-L3-14-02 M1-Si-sub
Si      44.15528295      17.27815420       2.71500000 S-L3-16-02 M1-Si-sub
Si      13.43856438      21.11774402       2.71500000 S-L3-00-04 M1-Si-sub
Si      17.27815420      21.11774402       2.71500000 S-L3-02-04 M1-Si-sub
Si      21.11774402      21.11774402       2.71500000 S-L3-04-04 M1-Si-sub
Si      24.95733384      21.11774402       2.71500000 S-L3-06-04 M1-Si-sub
Si      28.79692366      21.11774402       2.71500000 S-L3-08-04 M1-Si-sub
Si      32.63651349      21.11774402       2.71500000 S-L3-10-04 M1-Si-sub
Si      36.47610331      21.11774402       2.71500000 S-L3-12-04 M1-Si-sub
Si      40.31569313      21.11774402       2.71500000 S-L3-14-04 M1-Si-sub
Si      44.15528295      21.11774402       2.71500000 S-L3-16-04 M1-Si-sub
Si      13.43856438      24.95733384       2.71500000 S-L3-00-06 M1-Si-sub
Si      17.27815420      24.95733384       2.71500000 S-L3-02-06 M1-Si-sub
Si      21.11774402      24.95733384       2.71500000 S-L3-04-06 M1-Si-sub
Si      24.95733384      24.95733384       2.71500000 S-L3-06-06 M1-Si-sub
Si      28.79692366      24.95733384       2.71500000 S-L3-08-06 M1-Si-sub
Si      32.63651349      24.95733384       2.71500000 S-L3-10-06 M1-Si-sub
Si      36.47610331      24.95733384       2.71500000 S-L3-12-06 M1-Si-sub
Si      40.31569313      24.95733384       2.71500000 S-L3-14-06 M1-Si-sub
Si      44.15528295      24.95733384       2.71500000 S-L3-16-06 M1-Si-sub
Si      13.43856438      28.79692366       2.71500000 S-L3-00-08 M1-Si-sub
Si      17.27815420      28.79692366       2.71500000 S-L3-02-08 M1-Si-sub
Si      21.11774402      28.79692366       2.71500000 S-L3-04-08 M1-Si-sub
Si      24.95733384      28.79692366       2.71500000 S-L3-06-08 M1-Si-sub
Si      28.79692366      28.79692366       2.71500000 S-L3-08-08 M1-Si-sub
Si      32.63651349      28.79692366       2.71500000 S-L3-10-08 M1-Si-sub
Si      36.47610331      28.79692366       2.71500000 S-L3-12-08 M1-Si-sub
Si      40.31569313      28.79692366       2.71500000 S-L3-14-08 M1-Si-sub
Si      44.15528295      28.79692366       2.71500000 S-L3-16-08 M1-Si-sub
Si      13.43856438      32.63651349       2.71500000 S-L3-00-10 M1-Si-sub
Si      17.27815420      32.63651349       2.71500000 S-L3-02-10 M1-Si-sub
Si      21.11774402      32.63651349       2.71500000 S-L3-04-10 M1-Si-sub
Si      24.95733384      32.63651349       2.71500000 S-L3-06-10 M1-Si-sub
Si      28.79692366      32.63651349       2.71500000 S-L3-08-10 M1-Si-sub
Si      32.63651349      32.63651349       2.71500000 S-L3-10-10 M1-Si-sub
Si      36.47610331      32.63651349       2.71500000 S-L3-12-10 M1-Si-sub
Si      40.31569313      32.63651349       2.71500000 S-L3-14-10 M1-Si-sub
Si      44.15528295      32.63651349       2.71500000 S-L3-16-10 M1-Si-sub
Si      13.43856438      15.35835929       1.35750000 S-L4-00-01 M1-Si-sub
Si      17.27815420      15.35835929       1.35750000 S-L4-02-01 M1-Si-sub
Si      21.11774402      15.35835929       1.35750000 S-L4-04-01 M1-Si-sub
Si      24.95733384      15.35835929       1.35750000 S-L4-06-01 M1-Si-sub
Si      28.79692366      15.35835929       1.35750000 S-L4-08-01 M1-Si-sub
Si      32.63651349      15.35835929       1.35750000 S-L4-10-01 M1-Si-sub
Si      36.47610331      15.35835929       1.35750000 S-L4-12-01 M1-Si-sub
Si      40.31569313      15.35835929       1.35750000 S-L4-14-01 M1-Si-sub
Si      44.15528295      15.35835929       1.35750000 S-L4-16-01 M1-Si-sub
Si      13.43856438      19.19794911       1.35750000 S-L4-00-03 M1-Si-sub
Si      17.27815420      19.19794911       1.35750000 S-L4-02-03 M1-Si-sub
Si      21.11774402      19.19794911       1.35750000 S-L4-04-03 M1-Si-sub
Si      24.95733384      19.19794911       1.35750000 S-L4-06-03 M1-Si-sub
Si      28.79692366      19.19794911       1.35750000 S-L4-08-03 M1-Si-sub
Si      32.63651349      19.19794911       1.35750000 S-L4-10-03 M1-Si-sub
Si      36.47610331      19.19794911       1.35750000 S-L4-12-03 M1-Si-sub
Si      40.31569313      19.19794911       1.35750000 S-L4-14-03 M1-Si-sub
Si      44.15528295      19.19794911       1.35750000 S-L4-16-03 M1-Si-sub
Si      13.43856438      23.03753893       1.35750000 S-L4-00-05 M1-Si-sub
Si      17.27815420      23.03753893       1.35750000 S-L4-02-05 M1-Si-sub
Si      21.11774402      23.03753893       1.35750000 S-L4-04-05 M1-Si-sub
Si      24.95733384      23.03753893       1.35750000 S-L4-06-05 M1-Si-sub
Si      28.79692366      23.03753893       1.35750000 S-L4-08-05 M1-Si-sub
Si      32.63651349      23.03753893       1.35750000 S-L4-10-05 M1-Si-sub
Si      36.47610331      23.03753893       1.35750000 S-L4-12-05 M1-Si-sub
Si      40.31569313      23.03753893       1.35750000 S-L4-14-05 M1-Si-sub
Si      44.15528295      23.03753893       1.35750000 S-L4-16-05 M1-Si-sub
Si      13.43856438      26.87712875       1.35750000 S-L4-00-07 M1-Si-sub
Si      17.27815420      26.87712875       1.35750000 S-L4-02-07 M1-Si-sub
Si      21.11774402      26.87712875       1.35750000 S-L4-04-07 M1-Si-sub
Si      24.95733384      26.87712875       1.35750000 S-L4-06-07 M1-Si-sub
Si      28.79692366      26.87712875       1.35750000 S-L4-08-07 M1-Si-sub
Si      32.63651349      26.87712875       1.35750000 S-L4-10-07 M1-Si-sub
Si      36.47610331      26.87712875       1.35750000 S-L4-12-07 M1-Si-sub
Si      40.31569313      26.87712875       1.35750000 S-L4-14-07 M1-Si-sub
Si      44.15528295      26.87712875       1.35750000 S-L4-16-07 M1-Si-sub
Si      13.43856438      30.71671857       1.35750000 S-L4-00-09 M1-Si-sub
Si      17.27815420      30.71671857       1.35750000 S-L4-02-09 M1-Si-sub
Si      21.11774402      30.71671857       1.35750000 S-L4-04-09 M1-Si-sub
Si      24.95733384      30.71671857       1.35750000 S-L4-06-09 M1-Si-sub
Si      28.79692366      30.71671857       1.35750000 S-L4-08-09 M1-Si-sub
Si      32.63651349      30.71671857       1.35750000 S-L4-10-09 M1-Si-sub
Si      36.47610331      30.71671857       1.35750000 S-L4-12-09 M1-Si-sub
Si      40.31569313      30.71671857       1.35750000 S-L4-14-09 M1-Si-sub
Si      44.15528295      30.71671857       1.35750000 S-L4-16-09 M1-Si-sub
H       15.59808452      15.35835929       6.53523287 S-L1-01-01-H1 M1-H-dimer
H       18.95822388      15.35835929       6.53523287 S-L1-03-01-H1 M1-H-dimer
H       23.27726417      15.35835929       6.53523287 S-L1-05-01-H1 M1-H-dimer
H       26.63740352      15.35835929       6.53523287 S-L1-07-01-H1 M1-H-dimer
H       30.95644381      15.35835929       6.53523287 S-L1-09-01-H1 M1-H-dimer
H       34.31658316      15.35835929       6.53523287 S-L1-11-01-H1 M1-H-dimer
H       38.63562345      15.35835929       6.53523287 S-L1-13-01-H1 M1-H-dimer
H       41.99576281      15.35835929       6.53523287 S-L1-15-01-H1 M1-H-dimer
H       15.59808452      19.19794911       6.53523287 S-L1-01-03-H1 M1-H-dimer
H       18.95822388      19.19794911       6.53523287 S-L1-03-03-H1 M1-H-dimer
H       23.27726417      19.19794911       6.53523287 S-L1-05-03-H1 M1-H-dimer
H       26.63740352      19.19794911       6.53523287 S-L1-07-03-H1 M1-H-dimer
H       30.95644381      19.19794911       6.53523287 S-L1-09-03-H1 M1-H-dimer
H       34.31658316      19.19794911       6.53523287 S-L1-11-03-H1 M1-H-dimer
H       38.63562345      19.19794911       6.53523287 S-L1-13-03-H1 M1-H-dimer
H       41.99576281      19.19794911       6.53523287 S-L1-15-03-H1 M1-H-dimer
H       15.59808452      23.03753893       6.53523287 S-L1-01-05-H1 M1-H-dimer
H       18.95822388      23.03753893       6.53523287 S-L1-03-05-H1 M1-H-dimer
H       23.27726417      23.03753893       6.53523287 S-L1-05-05-H1 M1-H-dimer
H       34.31658316      23.03753893       6.53523287 S-L1-11-05-H1 M1-H-dimer
H       38.63562345      23.03753893       6.53523287 S-L1-13-05-H1 M1-H-dimer
H       41.99576281      23.03753893       6.53523287 S-L1-15-05-H1 M1-H-dimer
H       15.59808452      26.87712875       6.53523287 S-L1-01-07-H1 M1-H-dimer
H       18.95822388      26.87712875       6.53523287 S-L1-03-07-H1 M1-H-dimer
H       23.27726417      26.87712875       6.53523287 S-L1-05-07-H1 M1-H-dimer
H       26.63740352      26.87712875       6.53523287 S-L1-07-07-H1 M1-H-dimer
H       30.95644381      26.87712875       6.53523287 S-L1-09-07-H1 M1-H-dimer
H       34.31658316      26.87712875       6.53523287 S-L1-11-07-H1 M1-H-dimer
H       38.63562345      26.87712875       6.53523287 S-L1-13-07-H1 M1-H-dimer
H       41.99576281      26.87712875       6.53523287 S-L1-15-07-H1 M1-H-dimer
H       15.59808452      30.71671857       6.53523287 S-L1-01-09-H1 M1-H-dimer
H       18.95822388      30.71671857       6.53523287 S-L1-03-09-H1 M1-H-dimer
H       23.27726417      30.71671857       6.53523287 S-L1-05-09-H1 M1-H-dimer
H       26.63740352      30.71671857       6.53523287 S-L1-07-09-H1 M1-H-dimer
H       30.95644381      30.71671857       6.53523287 S-L1-09-09-H1 M1-H-dimer
H       34.31658316      30.71671857       6.53523287 S-L1-11-09-H1 M1-H-dimer
H       38.63562345      30.71671857       6.53523287 S-L1-13-09-H1 M1-H-dimer
H       41.99576281      30.71671857       6.53523287 S-L1-15-09-H1 M1-H-dimer
H       15.35835929      12.27913923       4.89233738 S-L2-01-00-H1 M1-H-cap
H       19.19794911      12.27913923       4.89233738 S-L2-03-00-H1 M1-H-cap
H       23.03753893      12.27913923       4.89233738 S-L2-05-00-H1 M1-H-cap
H       26.87712875      12.27913923       4.89233738 S-L2-07-00-H1 M1-H-cap
H       30.71671857      12.27913923       4.89233738 S-L2-09-00-H1 M1-H-cap
H       34.55630840      12.27913923       4.89233738 S-L2-11-00-H1 M1-H-cap
H       38.39589822      12.27913923       4.89233738 S-L2-13-00-H1 M1-H-cap
H       42.23548804      12.27913923       4.89233738 S-L2-15-00-H1 M1-H-cap
H       15.35835929      33.79593863       4.89233738 S-L2-01-10-H1 M1-H-cap
H       19.19794911      33.79593863       4.89233738 S-L2-03-10-H1 M1-H-cap
H       23.03753893      33.79593863       4.89233738 S-L2-05-10-H1 M1-H-cap
H       26.87712875      33.79593863       4.89233738 S-L2-07-10-H1 M1-H-cap
H       30.71671857      33.79593863       4.89233738 S-L2-09-10-H1 M1-H-cap
H       34.55630840      33.79593863       4.89233738 S-L2-11-10-H1 M1-H-cap
H       38.39589822      33.79593863       4.89233738 S-L2-13-10-H1 M1-H-cap
H       42.23548804      33.79593863       4.89233738 S-L2-15-10-H1 M1-H-cap
H       12.27913923      13.43856438       3.53483738 S-L3-00-00-H1 M1-H-cap
H       13.43856438      12.27913923       1.89516262 S-L3-00-00-H2 M1-H-cap
H       17.27815420      12.27913923       1.89516262 S-L3-02-00-H1 M1-H-cap
H       21.11774402      12.27913923       1.89516262 S-L3-04-00-H1 M1-H-cap
H       24.95733384      12.27913923       1.89516262 S-L3-06-00-H1 M1-H-cap
H       28.79692366      12.27913923       1.89516262 S-L3-08-00-H1 M1-H-cap
H       32.63651349      12.27913923       1.89516262 S-L3-10-00-H1 M1-H-cap
H       36.47610331      12.27913923       1.89516262 S-L3-12-00-H1 M1-H-cap
H       40.31569313      12.27913923       1.89516262 S-L3-14-00-H1 M1-H-cap
H       44.15528295      12.27913923       1.89516262 S-L3-16-00-H1 M1-H-cap
H       45.31470810      13.43856438       3.53483738 S-L3-16-00-H2 M1-H-cap
H       12.27913923      17.27815420       3.53483738 S-L3-00-02-H1 M1-H-cap
H       45.31470810      17.27815420       3.53483738 S-L3-16-02-H1 M1-H-cap
H       12.27913923      21.11774402       3.53483738 S-L3-00-04-H1 M1-H-cap
H       45.31470810      21.11774402       3.53483738 S-L3-16-04-H1 M1-H-cap
H       12.27913923      24.95733384       3.53483738 S-L3-00-06-H1 M1-H-cap
H       45.31470810      24.95733384       3.53483738 S-L3-16-06-H1 M1-H-cap
H       12.27913923      28.79692366       3.53483738 S-L3-00-08-H1 M1-H-cap
H       45.31470810      28.79692366       3.53483738 S-L3-16-08-H1 M1-H-cap
H       12.27913923      32.63651349       3.53483738 S-L3-00-10-H1 M1-H-cap
H       13.43856438      33.79593863       1.89516262 S-L3-00-10-H2 M1-H-cap
H       17.27815420      33.79593863       1.89516262 S-L3-02-10-H1 M1-H-cap
H       21.11774402      33.79593863       1.89516262 S-L3-04-10-H1 M1-H-cap
H       24.95733384      33.79593863       1.89516262 S-L3-06-10-H1 M1-H-cap
H       28.79692366      33.79593863       1.89516262 S-L3-08-10-H1 M1-H-cap
H       32.63651349      33.79593863       1.89516262 S-L3-10-10-H1 M1-H-cap
H       36.47610331      33.79593863       1.89516262 S-L3-12-10-H1 M1-H-cap
H       40.31569313      33.79593863       1.89516262 S-L3-14-10-H1 M1-H-cap
H       44.15528295      33.79593863       1.89516262 S-L3-16-10-H1 M1-H-cap
H       45.31470810      32.63651349       3.53483738 S-L3-16-10-H2 M1-H-cap
H       12.27913923      15.35835929       0.53766262 S-L4-00-01-H1 M1-H-cap
H       14.59798952      15.35835929       0.53766262 S-L4-00-01-H2 M1-H-cap
H       16.11872905      15.35835929       0.53766262 S-L4-02-01-H1 M1-H-cap
H       18.43757934      15.35835929       0.53766262 S-L4-02-01-H2 M1-H-cap
H       19.95831888      15.35835929       0.53766262 S-L4-04-01-H1 M1-H-cap
H       22.27716917      15.35835929       0.53766262 S-L4-04-01-H2 M1-H-cap
H       23.79790870      15.35835929       0.53766262 S-L4-06-01-H1 M1-H-cap
H       26.11675899      15.35835929       0.53766262 S-L4-06-01-H2 M1-H-cap
H       27.63749852      15.35835929       0.53766262 S-L4-08-01-H1 M1-H-cap
H       29.95634881      15.35835929       0.53766262 S-L4-08-01-H2 M1-H-cap
H       31.47708834      15.35835929       0.53766262 S-L4-10-01-H1 M1-H-cap
H       33.79593863      15.35835929       0.53766262 S-L4-10-01-H2 M1-H-cap
H       35.31667816      15.35835929       0.53766262 S-L4-12-01-H1 M1-H-cap
H       37.63552845      15.35835929       0.53766262 S-L4-12-01-H2 M1-H-cap
H       39.15626798      15.35835929       0.53766262 S-L4-14-01-H1 M1-H-cap
H       41.47511827      15.35835929       0.53766262 S-L4-14-01-H2 M1-H-cap
H       42.99585781      15.35835929       0.53766262 S-L4-16-01-H1 M1-H-cap
H       45.31470810      15.35835929       0.53766262 S-L4-16-01-H2 M1-H-cap
H       12.27913923      19.19794911       0.53766262 S-L4-00-03-H1 M1-H-cap
H       14.59798952      19.19794911       0.53766262 S-L4-00-03-H2 M1-H-cap
H       16.11872905      19.19794911       0.53766262 S-L4-02-03-H1 M1-H-cap
H       18.43757934      19.19794911       0.53766262 S-L4-02-03-H2 M1-H-cap
H       19.95831888      19.19794911       0.53766262 S-L4-04-03-H1 M1-H-cap
H       22.27716917      19.19794911       0.53766262 S-L4-04-03-H2 M1-H-cap
H       23.79790870      19.19794911       0.53766262 S-L4-06-03-H1 M1-H-cap
H       26.11675899      19.19794911       0.53766262 S-L4-06-03-H2 M1-H-cap
H       27.63749852      19.19794911       0.53766262 S-L4-08-03-H1 M1-H-cap
H       29.95634881      19.19794911       0.53766262 S-L4-08-03-H2 M1-H-cap
H       31.47708834      19.19794911       0.53766262 S-L4-10-03-H1 M1-H-cap
H       33.79593863      19.19794911       0.53766262 S-L4-10-03-H2 M1-H-cap
H       35.31667816      19.19794911       0.53766262 S-L4-12-03-H1 M1-H-cap
H       37.63552845      19.19794911       0.53766262 S-L4-12-03-H2 M1-H-cap
H       39.15626798      19.19794911       0.53766262 S-L4-14-03-H1 M1-H-cap
H       41.47511827      19.19794911       0.53766262 S-L4-14-03-H2 M1-H-cap
H       42.99585781      19.19794911       0.53766262 S-L4-16-03-H1 M1-H-cap
H       45.31470810      19.19794911       0.53766262 S-L4-16-03-H2 M1-H-cap
H       12.27913923      23.03753893       0.53766262 S-L4-00-05-H1 M1-H-cap
H       14.59798952      23.03753893       0.53766262 S-L4-00-05-H2 M1-H-cap
H       16.11872905      23.03753893       0.53766262 S-L4-02-05-H1 M1-H-cap
H       18.43757934      23.03753893       0.53766262 S-L4-02-05-H2 M1-H-cap
H       19.95831888      23.03753893       0.53766262 S-L4-04-05-H1 M1-H-cap
H       22.27716917      23.03753893       0.53766262 S-L4-04-05-H2 M1-H-cap
H       23.79790870      23.03753893       0.53766262 S-L4-06-05-H1 M1-H-cap
H       26.11675899      23.03753893       0.53766262 S-L4-06-05-H2 M1-H-cap
H       27.63749852      23.03753893       0.53766262 S-L4-08-05-H1 M1-H-cap
H       29.95634881      23.03753893       0.53766262 S-L4-08-05-H2 M1-H-cap
H       31.47708834      23.03753893       0.53766262 S-L4-10-05-H1 M1-H-cap
H       33.79593863      23.03753893       0.53766262 S-L4-10-05-H2 M1-H-cap
H       35.31667816      23.03753893       0.53766262 S-L4-12-05-H1 M1-H-cap
H       37.63552845      23.03753893       0.53766262 S-L4-12-05-H2 M1-H-cap
H       39.15626798      23.03753893       0.53766262 S-L4-14-05-H1 M1-H-cap
H       41.47511827      23.03753893       0.53766262 S-L4-14-05-H2 M1-H-cap
H       42.99585781      23.03753893       0.53766262 S-L4-16-05-H1 M1-H-cap
H       45.31470810      23.03753893       0.53766262 S-L4-16-05-H2 M1-H-cap
H       12.27913923      26.87712875       0.53766262 S-L4-00-07-H1 M1-H-cap
H       14.59798952      26.87712875       0.53766262 S-L4-00-07-H2 M1-H-cap
H       16.11872905      26.87712875       0.53766262 S-L4-02-07-H1 M1-H-cap
H       18.43757934      26.87712875       0.53766262 S-L4-02-07-H2 M1-H-cap
H       19.95831888      26.87712875       0.53766262 S-L4-04-07-H1 M1-H-cap
H       22.27716917      26.87712875       0.53766262 S-L4-04-07-H2 M1-H-cap
H       23.79790870      26.87712875       0.53766262 S-L4-06-07-H1 M1-H-cap
H       26.11675899      26.87712875       0.53766262 S-L4-06-07-H2 M1-H-cap
H       27.63749852      26.87712875       0.53766262 S-L4-08-07-H1 M1-H-cap
H       29.95634881      26.87712875       0.53766262 S-L4-08-07-H2 M1-H-cap
H       31.47708834      26.87712875       0.53766262 S-L4-10-07-H1 M1-H-cap
H       33.79593863      26.87712875       0.53766262 S-L4-10-07-H2 M1-H-cap
H       35.31667816      26.87712875       0.53766262 S-L4-12-07-H1 M1-H-cap
H       37.63552845      26.87712875       0.53766262 S-L4-12-07-H2 M1-H-cap
H       39.15626798      26.87712875       0.53766262 S-L4-14-07-H1 M1-H-cap
H       41.47511827      26.87712875       0.53766262 S-L4-14-07-H2 M1-H-cap
H       42.99585781      26.87712875       0.53766262 S-L4-16-07-H1 M1-H-cap
H       45.31470810      26.87712875       0.53766262 S-L4-16-07-H2 M1-H-cap
H       12.27913923      30.71671857       0.53766262 S-L4-00-09-H1 M1-H-cap
H       14.59798952      30.71671857       0.53766262 S-L4-00-09-H2 M1-H-cap
H       16.11872905      30.71671857       0.53766262 S-L4-02-09-H1 M1-H-cap
H       18.43757934      30.71671857       0.53766262 S-L4-02-09-H2 M1-H-cap
H       19.95831888      30.71671857       0.53766262 S-L4-04-09-H1 M1-H-cap
H       22.27716917      30.71671857       0.53766262 S-L4-04-09-H2 M1-H-cap
H       23.79790870      30.71671857       0.53766262 S-L4-06-09-H1 M1-H-cap
H       26.11675899      30.71671857       0.53766262 S-L4-06-09-H2 M1-H-cap
H       27.63749852      30.71671857       0.53766262 S-L4-08-09-H1 M1-H-cap
H       29.95634881      30.71671857       0.53766262 S-L4-08-09-H2 M1-H-cap
H       31.47708834      30.71671857       0.53766262 S-L4-10-09-H1 M1-H-cap
H       33.79593863      30.71671857       0.53766262 S-L4-10-09-H2 M1-H-cap
H       35.31667816      30.71671857       0.53766262 S-L4-12-09-H1 M1-H-cap
H       37.63552845      30.71671857       0.53766262 S-L4-12-09-H2 M1-H-cap
H       39.15626798      30.71671857       0.53766262 S-L4-14-09-H1 M1-H-cap
H       41.47511827      30.71671857       0.53766262 S-L4-14-09-H2 M1-H-cap
H       42.99585781      30.71671857       0.53766262 S-L4-16-09-H1 M1-H-cap
H       45.31470810      30.71671857       0.53766262 S-L4-16-09-H2 M1-H-cap
Ge      28.79692366      23.03753893      14.22963951 D-Ge1 M2-tool
C       28.78577707      23.04119708      12.39281348 D-Ca M2-tool
C       28.79692366      23.03753893      11.20785196 D-Cb M2-tool
C       30.57036825      23.09518200      15.02716325 D-C2 M2-tool
C       30.28075642      23.10189162      16.54015108 D-C3 M2-tool
C       31.64069950      23.07456064      17.16734591 D-L1a M2-tool
C       31.68296789      23.07236220      18.65235626 D-L1b M2-tool
O       33.06097895      23.03753893      18.99278729 D-O1 M2-tool
C       29.55821104      21.85927287      16.95223720 D-C4 M2-tool
C       28.11343941      21.79833064      16.54744160 D-C5 M2-tool
C       27.48872537      20.64641344      17.28944052 D-L2a M2-tool
C       26.03904404      20.43348969      17.00739712 D-L2b M2-tool
O       25.59180768      19.32809326      17.76826299 D-O2 M2-tool
C       27.95163509      21.48948725      15.05036872 D-C9 M2-tool
C       27.35007436      23.03055272      16.85142689 D-C6 M2-tool
C       28.07252190      24.33324998      16.52260231 D-C7 M2-tool
C       27.33324238      25.37880896      17.28777961 D-L3a M2-tool
C       27.81507889      26.77306545      17.16860024 D-L3b M2-tool
O       27.78569492      27.28064470      15.90158626 D-O3 M2-tool
C       29.51935761      24.31275487      16.94813880 D-C10 M2-tool
C       27.90739570      24.60042855      15.03984663 D-C8 M2-tool
H       31.15826051      22.18007924      14.83085904 D-C2-H1 M2-tool
H       31.09259059      24.03759106      14.79573455 D-C2-H2 M2-tool
H       32.30937353      23.87667073      16.76867371 D-L1a-H1 M2-tool
H       32.14402343      22.11700271      16.84093063 D-L1a-H2 M2-tool
H       31.27807534      22.15012006      19.09911177 D-L1b-H1 M2-tool
H       31.22908388      24.01095811      19.03093366 D-L1b-H2 M2-tool
H       33.42898609      22.28436265      18.43044246 D-O1-H1 M2-tool
H       29.54639801      21.85701445      18.06910250 D-C4-H1 M2-tool
H       30.06326988      20.93293848      16.63987058 D-C4-H2 M2-tool
H       27.59189629      20.82795294      18.37885832 D-L2a-H1 M2-tool
H       28.04557809      19.70607185      17.09924441 D-L2a-H2 M2-tool
H       25.78912696      20.18115985      15.97032358 D-L2b-H1 M2-tool
H       25.42113589      21.29829618      17.30226436 D-L2b-H2 M2-tool
H       24.90791704      19.58344794      18.41453559 D-O2-H1 M2-tool
H       26.87672611      21.47392505      14.83195733 D-C9-H1 M2-tool
H       28.44660403      20.54157367      14.82353415 D-C9-H2 M2-tool
H       26.41100776      23.07100076      16.27869651 D-C6-H1 M2-tool
H       27.11317465      23.05708648      17.93784579 D-C6-H2 M2-tool
H       26.24531740      25.33737952      16.97977430 D-L3a-H1 M2-tool
H       27.28241070      25.09832653      18.38247933 D-L3a-H2 M2-tool
H       28.79603785      26.90514154      17.66855817 D-L3b-H1 M2-tool
H       27.10481012      27.40236708      17.78193067 D-L3b-H2 M2-tool
H       28.38137811      28.05996472      15.78745848 D-O3-H1 M2-tool
H       29.50908924      24.36095223      18.05539489 D-C10-H1 M2-tool
H       29.96016171      25.25822154      16.60637986 D-C10-H2 M2-tool
H       26.84860688      24.64826084      14.79368699 D-C8-H1 M2-tool
H       28.51088304      25.47056734      14.70556725 D-C8-H2 M2-tool
